FILENAME:   ../instances_new/flowersnark/flowersnark15_3.cip
SETTINGS:   settings_final_moresymresack_norelabel
TIMELIMIT:  7200
OUTPUTNAME: final_flowersnark__settings_final_moresymresack_norelabel__3__
BINNAME:    bin/sbcs.linux.x86_64.gnu.opt.cpx
BASENAME:   flowersnark15_3.cip
SEED:       3
@01 ../instances_new/flowersnark/flowersnark15_3.cip ===========
@02 flowersnark15_3.cip
@03 1668048369
SCIP version 8.0.2 [precision: 8 byte] [memory: block] [mode: optimized] [LP solver: CPLEX 20.1.0.0] [GitHash: 5f0473c]
Copyright (C) 2002-2022 Konrad-Zuse-Zentrum fuer Informationstechnik Berlin (ZIB)

Symretope propagation methods - (c) Jasper van Doornmalen, Christopher Hojny.
[GitHash: 8113d1c]

reading parameter file <../settings/settings_final_moresymresack_norelabel.set> ...

Changed settings:
limits/time = 7200
misc/usesymmetry = 1
randomization/randomseedshift = 3
constraints/orbisack/sepafreq = -1
constraints/symresack/sepafreq = -1
propagating/symmetry/addsymresacks = TRUE
propagating/symmetry/detectsubgroups = FALSE
propagating/symmetry/usesymretopes = FALSE
propagating/symmetry/relabelsymretopes = 0
propagating/symmetry/addmoresymresacks = TRUE
propagating/symmetry/ofsymcomptiming = 0
constraints/symretope/sepafreq = -1
constraints/symretope/peek = FALSE


solving problem ...

original problem has 270 variables (270 bin, 0 int, 0 impl, 0 cont) and 270 constraints
presolving:
(round 1, exhaustive) 0 del vars, 0 del conss, 0 add conss, 0 chg bounds, 0 chg sides, 0 chg coeffs, 270 upgd conss, 0 impls, 270 clqs
   (0.0s) probing: 51/270 (18.9%) - 0 fixings, 0 aggregations, 0 implications, 0 bound changes
   (0.0s) probing aborted: 50/50 successive totally useless probings
   (0.0s) symmetry computation started: requiring (bin +, int +, cont +), (fixed: bin -, int -, cont -)
   (0.0s) symmetry computation finished: 5 generators found (max: 1500, log10 of symmetry group size: 2.6)
(round 2, exhaustive) 7 del vars, 0 del conss, 33 add conss, 0 chg bounds, 0 chg sides, 0 chg coeffs, 270 upgd conss, 0 impls, 267 clqs
(round 3, fast)       16 del vars, 7 del conss, 33 add conss, 0 chg bounds, 0 chg sides, 0 chg coeffs, 270 upgd conss, 0 impls, 263 clqs
(round 4, medium)     22 del vars, 7 del conss, 33 add conss, 0 chg bounds, 0 chg sides, 0 chg coeffs, 270 upgd conss, 0 impls, 259 clqs
(round 5, fast)       31 del vars, 15 del conss, 33 add conss, 0 chg bounds, 0 chg sides, 0 chg coeffs, 270 upgd conss, 0 impls, 255 clqs
   (0.0s) probing: 56/270 (20.7%) - 0 fixings, 0 aggregations, 0 implications, 0 bound changes
   (0.0s) probing aborted: 50/50 successive totally useless probings
presolving (6 rounds: 6 fast, 4 medium, 3 exhaustive):
 31 deleted vars, 15 deleted constraints, 33 added constraints, 0 tightened bounds, 0 added holes, 0 changed sides, 0 changed coefficients
 0 implications, 255 cliques
presolved problem has 249 variables (249 bin, 0 int, 0 impl, 0 cont) and 288 constraints
    255 constraints of type <setppc>
      3 constraints of type <orbisack>
      2 constraints of type <orbitope>
     28 constraints of type <symresack>
transformed objective value is always integral (scale: 1)
Presolving Time: 0.01

 time | node  | left  |LP iter|LP it/n|mem/heur|mdpt |vars |cons |rows |cuts |sepa|confs|strbr|  dualbound   | primalbound  |  gap   | compl. 
  0.0s|     1 |     0 |    85 |     - |  4960k |   0 | 249 | 314 | 255 |   0 |  0 |  25 |   0 | 0.000000e+00 |      --      |    Inf | unknown
  0.1s|     1 |     0 |   783 |     - |  5157k |   0 | 249 | 515 | 257 |   2 |  1 |  26 |   0 | 0.000000e+00 |      --      |    Inf | unknown
  0.1s|     1 |     0 |   862 |     - |  5484k |   0 | 249 | 516 | 259 |   4 |  2 |  27 |   0 | 0.000000e+00 |      --      |    Inf | unknown
  0.1s|     1 |     0 |   919 |     - |  5769k |   0 | 249 | 517 | 264 |   9 |  4 |  28 |   0 | 0.000000e+00 |      --      |    Inf | unknown
  0.1s|     1 |     0 |   972 |     - |  6075k |   0 | 249 | 518 | 267 |  12 |  5 |  29 |   0 | 0.000000e+00 |      --      |    Inf | unknown
  0.1s|     1 |     0 |  1023 |     - |  6459k |   0 | 249 | 524 | 269 |  14 |  6 |  35 |   0 | 0.000000e+00 |      --      |    Inf | unknown
  0.2s|     1 |     0 |  1076 |     - |  7092k |   0 | 249 | 525 | 273 |  18 |  7 |  36 |   0 | 0.000000e+00 |      --      |    Inf | unknown
  0.2s|     1 |     0 |  1148 |     - |  7710k |   0 | 249 | 526 | 274 |  19 |  8 |  37 |   0 | 0.000000e+00 |      --      |    Inf | unknown
  0.2s|     1 |     0 |  1250 |     - |  8080k |   0 | 249 | 527 | 278 |  23 |  9 |  38 |   0 | 0.000000e+00 |      --      |    Inf | unknown
  0.2s|     1 |     0 |  1359 |     - |  8859k |   0 | 249 | 528 | 280 |  25 | 10 |  39 |   0 | 0.000000e+00 |      --      |    Inf | unknown
  0.2s|     1 |     0 |  1439 |     - |    10M |   0 | 249 | 533 | 283 |  28 | 11 |  44 |   0 | 0.000000e+00 |      --      |    Inf | unknown
  0.3s|     1 |     2 |  1673 |     - |    10M |   0 | 249 | 544 | 283 |  28 | 11 |  55 |  10 | 0.000000e+00 |      --      |    Inf | unknown
  1.6s|   100 |    17 |  8223 |  68.5 |    12M |  10 | 249 | 742 | 262 |  65 |  1 | 255 |  10 | 0.000000e+00 |      --      |    Inf |  59.38%
  2.0s|   200 |    13 | 13812 |  62.2 |    16M |  14 | 249 | 901 | 264 | 117 |  0 | 415 |  10 | 0.000000e+00 |      --      |    Inf |  62.76%
  2.6s|   300 |    11 | 19141 |  59.2 |    19M |  14 | 249 |1069 | 262 | 187 |  1 | 586 |  10 | 0.000000e+00 |      --      |    Inf |  73.34%
 time | node  | left  |LP iter|LP it/n|mem/heur|mdpt |vars |cons |rows |cuts |sepa|confs|strbr|  dualbound   | primalbound  |  gap   | compl. 
  3.0s|   400 |    14 | 22940 |  53.9 |    19M |  14 | 249 |1251 | 262 | 221 |  1 | 787 |  10 | 0.000000e+00 |      --      |    Inf |  78.32%
  3.7s|   500 |    16 | 28092 |  53.4 |    19M |  14 | 249 |1479 | 265 | 296 |  1 |1018 |  10 | 0.000000e+00 |      --      |    Inf |  88.28%
  4.0s|   600 |    12 | 33626 |  53.7 |    20M |  15 | 249 |1654 | 268 | 341 |  3 |1217 |  10 | 0.000000e+00 |      --      |    Inf |  89.98%
  4.6s|   700 |    13 | 38880 |  53.6 |    20M |  17 | 249 |1828 | 266 | 385 |  1 |1403 |  10 | 0.000000e+00 |      --      |    Inf |  93.91%
  4.9s|   800 |    12 | 43368 |  52.5 |    20M |  17 | 249 |1950 | 262 | 410 |  1 |1534 |  10 | 0.000000e+00 |      --      |    Inf |  97.41%
  5.3s|   900 |     4 | 49232 |  53.2 |    21M |  18 | 249 |2167 |   0 | 453 |  0 |1769 |  10 | 0.000000e+00 |      --      |    Inf |  98.63%
  5.5s|  1000 |     7 | 53640 |  52.3 |    21M |  18 | 249 |2330 | 265 | 468 |  1 |1949 |  10 | 0.000000e+00 |      --      |    Inf |  98.77%
  5.7s|  1100 |     8 | 58384 |  51.8 |    21M |  18 | 249 |2497 | 266 | 500 |  0 |2153 |  10 | 0.000000e+00 |      --      |    Inf |  99.17%
  6.0s|  1200 |    11 | 62479 |  50.9 |    21M |  18 | 249 |2577 | 267 | 518 |  1 |2314 |  10 | 0.000000e+00 |      --      |    Inf |  99.53%
  6.2s|  1300 |    13 | 66603 |  50.2 |    21M |  18 | 249 |2560 | 265 | 540 |  0 |2514 |  10 | 0.000000e+00 |      --      |    Inf |  99.86%

SCIP Status        : problem is solved [infeasible]
Solving Time (sec) : 6.26
Solving Nodes      : 1335
Primal Bound       : +1.00000000000000e+20 (0 solutions)
Dual Bound         : +1.00000000000000e+20
Gap                : 0.00 %
SCIP Status        : problem is solved [infeasible]
Total Time         :       6.26
  solving          :       6.26
  presolving       :       0.01 (included in solving)
  reading          :       0.00
  copying          :       0.11 (34 #copies) (minimal 0.00, maximal 0.01, average 0.00)
Original Problem   :
  Problem name     : model
  Variables        : 270 (270 binary, 0 integer, 0 implicit integer, 0 continuous)
  Constraints      : 270 initial, 270 maximal
  Objective        : minimize, 0 non-zeros (abs.min = 1e+20, abs.max = -1e+20)
Presolved Problem  :
  Problem name     : t_model
  Variables        : 249 (249 binary, 0 integer, 0 implicit integer, 0 continuous)
  Constraints      : 288 initial, 2598 maximal
  Objective        : minimize, 0 non-zeros (abs.min = 1e+20, abs.max = -1e+20)
  Nonzeros         : 9291 constraint, 768 clique table
Presolvers         :   ExecTime  SetupTime  Calls  FixedVars   AggrVars   ChgTypes  ChgBounds   AddHoles    DelCons    AddCons   ChgSides   ChgCoefs
  boundshift       :       0.00       0.00      0          0          0          0          0          0          0          0          0          0
  convertinttobin  :       0.00       0.00      0          0          0          0          0          0          0          0          0          0
  domcol           :       0.00       0.00      2          0          0          0          0          0          0          0          0          0
  dualagg          :       0.00       0.00      0          0          0          0          0          0          0          0          0          0
  dualcomp         :       0.00       0.00      0          0          0          0          0          0          0          0          0          0
  dualinfer        :       0.00       0.00      0          0          0          0          0          0          0          0          0          0
  dualsparsify     :       0.00       0.00      1          0          0          0          0          0          0          0          0          0
  gateextraction   :       0.00       0.00      0          0          0          0          0          0          0          0          0          0
  implics          :       0.00       0.00      4          0          0          0          0          0          0          0          0          0
  inttobinary      :       0.00       0.00      0          0          0          0          0          0          0          0          0          0
  qpkktref         :       0.00       0.00      0          0          0          0          0          0          0          0          0          0
  redvub           :       0.00       0.00      0          0          0          0          0          0          0          0          0          0
  sparsify         :       0.00       0.00      1          0          0          0          0          0          0          0          0          0
  stuffing         :       0.00       0.00      0          0          0          0          0          0          0          0          0          0
  trivial          :       0.00       0.00      6         10          0          0          0          0          0          0          0          0
  tworowbnd        :       0.00       0.00      0          0          0          0          0          0          0          0          0          0
  dualfix          :       0.00       0.00      6          0          0          0          0          0          0          0          0          0
  genvbounds       :       0.00       0.00      0          0          0          0          0          0          0          0          0          0
  probing          :       0.00       0.00      2          0          0          0          0          0          0          0          0          0
  pseudoobj        :       0.00       0.00      0          0          0          0          0          0          0          0          0          0
  symmetry         :       0.00       0.00      1          2          0          0          0          0          0         33          0          0
  vbounds          :       0.00       0.00      1          0          0          0          0          0          0          0          0          0
  knapsack         :       0.00       0.00      0          0          0          0          0          0          0          0          0          0
  setppc           :       0.00       0.00     10          0          8          0          0          0         15          0          0          0
  linear           :       0.00       0.00      2          0          0          0          0          0          0          0          0          0
  orbisack         :       0.00       0.00      1          0          0          0          0          0          0          0          0          0
  orbitope         :       0.00       0.00      2          1          0          0          0          0          0          0          0          0
  symresack        :       0.00       0.00      1          0          0          0          0          0          0          0          0          0
  logicor          :       0.00       0.00      0          0          0          0          0          0          0          0          0          0
  benders          :       0.00       0.00      0          0          0          0          0          0          0          0          0          0
  components       :       0.00       0.00      1          0          0          0          0          0          0          0          0          0
  root node        :          -          -      -          3          -          -          3          -          -          -          -          -
Constraints        :     Number  MaxNumber  #Separate #Propagate    #EnfoLP    #EnfoRelax  #EnfoPS    #Check   #ResProp    Cutoffs    DomReds       Cuts    Applied      Conss   Children
  benderslp        :          0          0          0          0        714          0          0          7          0          0          0          0          0          0          0
  integral         :          0          0          0          0        714          0          0          7          0          0          0          0          0          0       1428
  knapsack         :          0+        78          0      10886          0          0          0          0       1447         40       2452          0          0          0          0
  setppc           :        255+       272         10      11576          0          0          0          3      26657        285      23166          0          0          0          0
  linear           :          0+       216         10      10836          0          0          0          0       1084         27       1327          0          0          0          0
  orbisack         :          3          3          0          0          0          0          0          0          0          0          0          0          0          0          0
  orbitope         :          2          2          0      11164          0          0          0          0          0          0          0          0          0          0          0
  symresack        :         28         28          0       2412          0          0          0          0        294          7        350          0          0          0          0
  logicor          :          0+      2041         10       7515          0          0          0          0       3077         57       2607          0          0          0          0
  benders          :          0          0          0          0          0          0          0          0          0          0          0          0          0          0          0
  countsols        :          0          0          0          0          0          0          0          0          0          0          0          0          0          0          0
  components       :          0          0          0          0          0          0          0          0          0          0          0          0          0          0          0
Constraint Timings :  TotalTime  SetupTime   Separate  Propagate     EnfoLP     EnfoPS     EnfoRelax   Check    ResProp    SB-Prop
  benderslp        :       0.00       0.00       0.00       0.00       0.00       0.00       0.00       0.00       0.00       0.00
  integral         :       0.08       0.00       0.00       0.00       0.08       0.00       0.00       0.00       0.00       0.00
  knapsack         :       0.05       0.00       0.00       0.05       0.00       0.00       0.00       0.00       0.00       0.00
  setppc           :       0.13       0.00       0.00       0.12       0.00       0.00       0.00       0.00       0.01       0.00
  linear           :       0.04       0.00       0.00       0.04       0.00       0.00       0.00       0.00       0.00       0.00
  orbisack         :       0.00       0.00       0.00       0.00       0.00       0.00       0.00       0.00       0.00       0.00
  orbitope         :       0.02       0.00       0.00       0.02       0.00       0.00       0.00       0.00       0.00       0.00
  symresack        :       0.01       0.00       0.00       0.01       0.00       0.00       0.00       0.00       0.00       0.00
  logicor          :       0.09       0.00       0.00       0.09       0.00       0.00       0.00       0.00       0.00       0.00
  benders          :       0.00       0.00       0.00       0.00       0.00       0.00       0.00       0.00       0.00       0.00
  countsols        :       0.00       0.00       0.00       0.00       0.00       0.00       0.00       0.00       0.00       0.00
  components       :       0.00       0.00       0.00       0.00       0.00       0.00       0.00       0.00       0.00       0.00
Propagators        : #Propagate   #ResProp    Cutoffs    DomReds
  dualfix          :          1          0          0          0
  genvbounds       :          0          0          0          0
  nlobbt           :          0          0          0          0
  obbt             :          0          0          0          0
  probing          :          0          0          0          0
  pseudoobj        :          0          0          0          0
  redcost          :          0          0          0          0
  rootredcost      :          0          0          0          0
  symmetry         :          0          0          0          0
  vbounds          :       8284          0          0          0
Propagator Timings :  TotalTime  SetupTime   Presolve  Propagate    ResProp    SB-Prop
  dualfix          :       0.00       0.00       0.00       0.00       0.00       0.00
  genvbounds       :       0.00       0.00       0.00       0.00       0.00       0.00
  nlobbt           :       0.00       0.00       0.00       0.00       0.00       0.00
  obbt             :       0.00       0.00       0.00       0.00       0.00       0.00
  probing          :       0.00       0.00       0.00       0.00       0.00       0.00
  pseudoobj        :       0.00       0.00       0.00       0.00       0.00       0.00
  redcost          :       0.00       0.00       0.00       0.00       0.00       0.00
  rootredcost      :       0.00       0.00       0.00       0.00       0.00       0.00
  symmetry         :       0.00       0.00       0.00       0.00       0.00       0.00
  vbounds          :       0.01       0.00       0.00       0.01       0.00       0.00
Orbital fixing     :
  vars fixed to 0  :          0
  vars fixed to 1  :          0
Conflict Analysis  :       Time      Calls    Success    DomReds  Conflicts   Literals    Reconvs ReconvLits   Dualrays   Nonzeros   LP Iters   (pool size: [10000,10000])
  propagation      :       0.02        398        389          -       1572       17.9         20        6.2          -          -          -
  infeasible LP    :       0.08        494        419          -       2137       15.5         15        3.7        208       24.4          0
  bound exceed. LP :       0.00          0          0          -          0        0.0          0        0.0          0        0.0          0
  strong branching :       0.00          0          0          -          0        0.0          0        0.0          -          -          0
  pseudo solution  :       0.00          0          0          -          0        0.0          0        0.0          -          -          -
  applied globally :       0.01          -          -          0       2388       13.1          -          -        190          -          -
  applied locally  :          -          -          -          0         17       12.4          -          -         18          -          -
Separators         :   ExecTime  SetupTime      Calls  RootCalls    Cutoffs    DomReds  FoundCuts ViaPoolAdd  DirectAdd    Applied ViaPoolApp  DirectApp      Conss
  cut pool         :       0.28          -        419         20          -          -       7284       2474          -          -          -          -          -    (maximal pool size:       2977)
  aggregation      :       0.07       0.00        221         10          0          0          0          0          0          0          0          0          0
  > cmir           :          -          -          -          -          -          -          -          0          0          0          0          0          -
  > flowcover      :          -          -          -          -          -          -          -          0          0          0          0          0          -
  > knapsackcover  :          -          -          -          -          -          -          -          0          0          0          0          0          -
  cgmip            :       0.00       0.00          0          0          0          0          0          0          0          0          0          0          0
  clique           :       0.00       0.00         10         10          0          0          0          0          0          0          0          0          0
  closecuts        :       0.00       0.00          0          0          0          0          0          0          0          0          0          0          0
  convexproj       :       0.00       0.00          0          0          0          0          0          0          0          0          0          0          0
  disjunctive      :       0.00       0.00          0          0          0          0          0          0          0          0          0          0          0
  eccuts           :       0.00       0.00          0          0          0          0          0          0          0          0          0          0          0
  gauge            :       0.00       0.00          0          0          0          0          0          0          0          0          0          0          0
  gomory           :       0.73       0.00        221         10          0          0       9514       2366       2298        280        228         52          0
  > gomorymi       :          -          -          -          -          -          -          -        470       1149         57         27         30          -
  > strongcg       :          -          -          -          -          -          -          -       1896       1149        223        201         22          -
  impliedbounds    :       0.00       0.00        221         10          0          0          0          0          0          0          0          0          0
  interminor       :       0.00       0.00          0          0          0          0          0          0          0          0          0          0          0
  intobj           :       0.00       0.00          0          0          0          0          0          0          0          0          0          0          0
  mcf              :       0.00       0.00          1          1          0          0          0          0          0          0          0          0          0
  minor            :       0.00       0.00          0          0          0          0          0          0          0          0          0          0          0
  mixing           :       0.00       0.00          0          0          0          0          0          0          0          0          0          0          0
  oddcycle         :       0.00       0.00          0          0          0          0          0          0          0          0          0          0          0
  rapidlearning    :       2.27       0.00         33          1          0       2816          0          0          0          0          0          0        480
  rlt              :       0.00       0.00         10         10          0          0          0          0          0          0          0          0          0
  zerohalf         :       0.10       0.00        221         10          0          0        353        108        285        260         63        197          0
Cutselectors       :   ExecTime  SetupTime      Calls  RootCalls   Selected     Forced   Filtered  RootSelec   RootForc   RootFilt 
  hybrid           :       0.01       0.00        220         10        540          0       4517         28          0        675
Pricers            :   ExecTime  SetupTime      Calls       Vars
  problem variables:       0.00          -          0          0
Branching Rules    :   ExecTime  SetupTime   BranchLP  BranchExt   BranchPS    Cutoffs    DomReds       Cuts      Conss   Children
  allfullstrong    :       0.00       0.00          0          0          0          0          0          0          0          0
  cloud            :       0.00       0.00          0          0          0          0          0          0          0          0
  distribution     :       0.00       0.00          0          0          0          0          0          0          0          0
  fullstrong       :       0.00       0.00          0          0          0          0          0          0          0          0
  inference        :       0.00       0.00          0          0          0          0          0          0          0          0
  leastinf         :       0.00       0.00          0          0          0          0          0          0          0          0
  lookahead        :       0.00       0.00          0          0          0          0          0          0          0          0
  mostinf          :       0.00       0.00          0          0          0          0          0          0          0          0
  multaggr         :       0.00       0.00          0          0          0          0          0          0          0          0
  nodereopt        :       0.00       0.00          0          0          0          0          0          0          0          0
  pscost           :       0.00       0.00          0          0          0          0          0          0          0          0
  random           :       0.00       0.00          0          0          0          0          0          0          0          0
  relpscost        :       0.08       0.00        714          0          0          0          0          0          0       1428
  vanillafullstrong:       0.00       0.00          0          0          0          0          0          0          0          0
Primal Heuristics  :   ExecTime  SetupTime      Calls      Found       Best
  LP solutions     :       0.00          -          -          0          0
  relax solutions  :       0.00          -          -          0          0
  pseudo solutions :       0.00          -          -          0          0
  strong branching :       0.00          -          -          0          0
  actconsdiving    :       0.00       0.00          0          0          0
  adaptivediving   :       0.05       0.00         16          0          0
  alns             :       0.01       0.00          1          0          0
  bound            :       0.00       0.00          0          0          0
  clique           :       0.00       0.00          1          0          0
  coefdiving       :       0.00       0.00          0          0          0
  completesol      :       0.00       0.00          0          0          0
  conflictdiving   :       0.02       0.00          8          0          0
  crossover        :       0.00       0.00          0          0          0
  dins             :       0.00       0.00          0          0          0
  distributiondivin:       0.04       0.00          8          0          0
  dps              :       0.00       0.00          0          0          0
  dualval          :       0.00       0.00          0          0          0
  farkasdiving     :       0.00       0.00          0          0          0
  feaspump         :       0.01       0.00          1          0          0
  fixandinfer      :       0.00       0.00          0          0          0
  fracdiving       :       0.02       0.00          8          0          0
  gins             :       0.00       0.00          0          0          0
  guideddiving     :       0.00       0.00          0          0          0
  indicator        :       0.00       0.00          0          0          0
  intdiving        :       0.00       0.00          0          0          0
  intshifting      :       0.00       0.00          0          0          0
  linesearchdiving :       0.02       0.00          8          0          0
  localbranching   :       0.00       0.00          0          0          0
  locks            :       0.00       0.00          1          0          0
  lpface           :       0.00       0.00          0          0          0
  mpec             :       0.00       0.00          0          0          0
  multistart       :       0.00       0.00          0          0          0
  mutation         :       0.00       0.00          0          0          0
  nlpdiving        :       0.00       0.00          0          0          0
  objpscostdiving  :       0.03       0.00          4          0          0
  octane           :       0.00       0.00          0          0          0
  ofins            :       0.00       0.00          0          0          0
  oneopt           :       0.00       0.00          0          0          0
  padm             :       0.00       0.00          0          0          0
  proximity        :       0.00       0.00          0          0          0
  pscostdiving     :       0.01       0.00          8          0          0
  randrounding     :       0.01       0.00         11          0          0
  rens             :       0.00       0.00          0          0          0
  reoptsols        :       0.00       0.00          0          0          0
  repair           :       0.00       0.00          0          0          0
  rins             :       0.00       0.00          0          0          0
  rootsoldiving    :       0.04       0.00          5          0          0
  rounding         :       0.02       0.00        399          0          0
  shiftandpropagate:       0.00       0.00          1          0          0
  shifting         :       0.01       0.00        171          0          0
  simplerounding   :       0.00       0.00          0          0          0
  subnlp           :       0.00       0.00          0          0          0
  trivial          :       0.00       0.00          2          0          0
  trivialnegation  :       0.00       0.00          0          0          0
  trustregion      :       0.00       0.00          0          0          0
  trysol           :       0.00       0.00          0          0          0
  twoopt           :       0.00       0.00          0          0          0
  undercover       :       0.00       0.00          0          0          0
  vbounds          :       0.00       0.00          1          0          0
  veclendiving     :       0.01       0.00          8          0          0
  zeroobj          :       0.00       0.00          0          0          0
  zirounding       :       0.01       0.00        714          0          0
  other solutions  :          -          -          -          0          -
LP                 :       Time      Calls Iterations  Iter/call   Iter/sec  Time-0-It Calls-0-It    ItLimit
  primal LP        :       0.07         84          0       0.00       0.00       0.07         84
  dual LP          :       1.62       1423      63458      44.81   39103.51       0.00          7
  lex dual LP      :       0.00          0          0       0.00          -
  barrier LP       :       0.00          0          0       0.00          -       0.00          0
  resolve instable :       0.00          0          0       0.00          -
  diving/probing LP:       0.14        142       4702      33.11   32992.09
  strong branching :       0.06         10       2149     214.90   36874.98          -          -          0
    (at root node) :          -         10       2149     214.90          -
  conflict analysis:       0.00          0          0       0.00          -
B&B Tree           :
  number of runs   :          1
  nodes            :       1335 (714 internal, 621 leaves)
  feasible leaves  :          0
  infeas. leaves   :        621
  objective leaves :          0
  nodes (total)    :       1335 (714 internal, 621 leaves)
  nodes left       :          0
  max depth        :         18
  max depth (total):         18
  backtracks       :        457 (34.2%)
  early backtracks :          0 (0.0%)
  nodes exc. ref.  :          0 (0.0%)
  delayed cutoffs  :         94
  repropagations   :        630 (8448 domain reductions, 78 cutoffs)
  avg switch length:       3.33
  switching time   :       0.20
Root Node          :
  First LP value   : +0.00000000000000e+00
  First LP Iters   :         85 (33490.94 Iter/sec)
  First LP Time    :       0.00
  Final Dual Bound : +0.00000000000000e+00
  Final Root Iters :       1439
  Root LP Estimate : +6.85874172490430e-03
Solution           :
  Solutions found  :          0 (0 improvements)
  Primal Bound     : infeasible
  Dual Bound       :          -
  Gap              :       0.00 %
Integrals          :      Total       Avg%
  primal-dual      :          -          - (problem infeasible)
  primal-ref       :          -          - (problem infeasible)
  dual-ref         :          -          - (problem infeasible)
written solution information to file <results/final_flowersnark__settings_final_moresymresack_norelabel__3__flowersnark15_3.cip.sol>
@04 1668048376
